<?xml version = "1.0" encoding="UTF-8" standalone="yes"?>
<CPLEXSolutions version="1.2">
 <CPLEXSolution version="1.2">
  <header
    problemName="IloCplex"
    solutionName="incumbent"
    solutionIndex="-1"
    objectiveValue="4"
    solutionTypeValue="3"
    solutionTypeString="primal"
    solutionStatusValue="101"
    solutionStatusString="integer optimal solution"
    solutionMethodString="mip"
    primalFeasible="1"
    dualFeasible="1"
    MIPNodes="0"
    MIPIterations="0"
    writeLevel="1"/>
  <quality
    epInt="1.0000000000000001e-05"
    epRHS="9.9999999999999995e-07"
    maxIntInfeas="0"
    maxPrimalInfeas="0"
    maxX="4"
    maxSlack="1"/>
  <linearConstraints>
   <constraint index="0" slack="0"/>
   <constraint index="1" slack="0"/>
   <constraint index="2" slack="0"/>
   <constraint index="3" slack="0"/>
   <constraint index="4" slack="0"/>
   <constraint index="5" slack="0"/>
   <constraint index="6" slack="0"/>
   <constraint index="7" slack="0"/>
   <constraint index="8" slack="0"/>
   <constraint index="9" slack="0"/>
   <constraint index="10" slack="0"/>
   <constraint index="11" slack="0"/>
   <constraint index="12" slack="0"/>
   <constraint index="13" slack="0"/>
   <constraint index="14" slack="0"/>
   <constraint index="15" slack="0"/>
   <constraint index="16" slack="0"/>
   <constraint index="17" slack="0"/>
   <constraint index="18" slack="0"/>
   <constraint index="19" slack="0"/>
   <constraint index="20" slack="0"/>
   <constraint index="21" slack="0"/>
   <constraint index="22" slack="0"/>
   <constraint index="23" slack="0"/>
   <constraint index="24" slack="0"/>
   <constraint index="25" slack="0"/>
   <constraint index="26" slack="0"/>
   <constraint index="27" slack="0"/>
   <constraint index="28" slack="0"/>
   <constraint index="29" slack="0"/>
   <constraint index="30" slack="0"/>
   <constraint index="31" slack="0"/>
   <constraint index="32" slack="0"/>
   <constraint index="33" slack="0"/>
   <constraint index="34" slack="0"/>
   <constraint index="35" slack="0"/>
   <constraint index="36" slack="0"/>
   <constraint index="37" slack="0"/>
   <constraint index="38" slack="0"/>
   <constraint index="39" slack="0"/>
   <constraint index="40" slack="0"/>
   <constraint index="41" slack="0"/>
   <constraint index="42" slack="0"/>
   <constraint index="43" slack="0"/>
   <constraint index="44" slack="0"/>
   <constraint index="45" slack="0"/>
   <constraint index="46" slack="0"/>
   <constraint index="47" slack="0"/>
   <constraint index="48" slack="0"/>
   <constraint index="49" slack="0"/>
   <constraint index="50" slack="0"/>
   <constraint index="51" slack="0"/>
   <constraint index="52" slack="0"/>
   <constraint index="53" slack="0"/>
   <constraint index="54" slack="0"/>
   <constraint index="55" slack="1"/>
   <constraint index="56" slack="1"/>
   <constraint index="57" slack="1"/>
   <constraint index="58" slack="1"/>
   <constraint index="59" slack="1"/>
   <constraint index="60" slack="0"/>
   <constraint index="61" slack="1"/>
   <constraint index="62" slack="1"/>
   <constraint index="63" slack="1"/>
   <constraint index="64" slack="0"/>
   <constraint index="65" slack="1"/>
   <constraint index="66" slack="1"/>
   <constraint index="67" slack="1"/>
   <constraint index="68" slack="1"/>
   <constraint index="69" slack="1"/>
   <constraint index="70" slack="1"/>
   <constraint index="71" slack="0"/>
   <constraint index="72" slack="1"/>
   <constraint index="73" slack="1"/>
   <constraint index="74" slack="1"/>
   <constraint index="75" slack="1"/>
   <constraint index="76" slack="0"/>
   <constraint index="77" slack="1"/>
   <constraint index="78" slack="1"/>
   <constraint index="79" slack="1"/>
   <constraint index="80" slack="1"/>
   <constraint index="81" slack="1"/>
   <constraint index="82" slack="0"/>
   <constraint index="83" slack="1"/>
   <constraint index="84" slack="0"/>
   <constraint index="85" slack="0"/>
   <constraint index="86" slack="0"/>
   <constraint index="87" slack="0"/>
   <constraint index="88" slack="0"/>
   <constraint index="89" slack="0"/>
   <constraint index="90" slack="-1"/>
   <constraint index="91" slack="-1"/>
   <constraint index="92" slack="-1"/>
   <constraint index="93" slack="-1"/>
   <constraint index="94" slack="-1"/>
   <constraint index="95" slack="-1"/>
  </linearConstraints>
  <variables>
   <variable name="f[1,1]" index="0" value="1"/>
   <variable name="f[1,2]" index="1" value="0"/>
   <variable name="f[1,3]" index="2" value="0"/>
   <variable name="f[1,4]" index="3" value="0"/>
   <variable name="f[1,5]" index="4" value="1"/>
   <variable name="f[1,6]" index="5" value="0"/>
   <variable name="f[1,7]" index="6" value="0"/>
   <variable name="f[1,8]" index="7" value="0"/>
   <variable name="f[1,9]" index="8" value="0"/>
   <variable name="f[1,10]" index="9" value="0"/>
   <variable name="f[1,11]" index="10" value="0"/>
   <variable name="f[1,12]" index="11" value="0"/>
   <variable name="f[2,1]" index="12" value="0"/>
   <variable name="f[2,2]" index="13" value="0"/>
   <variable name="f[2,3]" index="14" value="0"/>
   <variable name="f[2,4]" index="15" value="0"/>
   <variable name="f[2,5]" index="16" value="1"/>
   <variable name="f[2,6]" index="17" value="0"/>
   <variable name="f[2,7]" index="18" value="0"/>
   <variable name="f[2,8]" index="19" value="1"/>
   <variable name="f[2,9]" index="20" value="0"/>
   <variable name="f[2,10]" index="21" value="0"/>
   <variable name="f[2,11]" index="22" value="0"/>
   <variable name="f[2,12]" index="23" value="0"/>
   <variable name="f[3,1]" index="24" value="1"/>
   <variable name="f[3,2]" index="25" value="1"/>
   <variable name="f[3,3]" index="26" value="0"/>
   <variable name="f[3,4]" index="27" value="0"/>
   <variable name="f[3,5]" index="28" value="0"/>
   <variable name="f[3,6]" index="29" value="0"/>
   <variable name="f[3,7]" index="30" value="0"/>
   <variable name="f[3,8]" index="31" value="0"/>
   <variable name="f[3,9]" index="32" value="0"/>
   <variable name="f[3,10]" index="33" value="0"/>
   <variable name="f[3,11]" index="34" value="0"/>
   <variable name="f[3,12]" index="35" value="0"/>
   <variable name="f[4,1]" index="36" value="0"/>
   <variable name="f[4,2]" index="37" value="0"/>
   <variable name="f[4,3]" index="38" value="1"/>
   <variable name="f[4,4]" index="39" value="1"/>
   <variable name="f[4,5]" index="40" value="0"/>
   <variable name="f[4,6]" index="41" value="0"/>
   <variable name="f[4,7]" index="42" value="0"/>
   <variable name="f[4,8]" index="43" value="0"/>
   <variable name="f[4,9]" index="44" value="0"/>
   <variable name="f[4,10]" index="45" value="0"/>
   <variable name="f[4,11]" index="46" value="0"/>
   <variable name="f[4,12]" index="47" value="0"/>
   <variable name="f[5,1]" index="48" value="0"/>
   <variable name="f[5,2]" index="49" value="0"/>
   <variable name="f[5,3]" index="50" value="1"/>
   <variable name="f[5,4]" index="51" value="0"/>
   <variable name="f[5,5]" index="52" value="0"/>
   <variable name="f[5,6]" index="53" value="1"/>
   <variable name="f[5,7]" index="54" value="0"/>
   <variable name="f[5,8]" index="55" value="0"/>
   <variable name="f[5,9]" index="56" value="0"/>
   <variable name="f[5,10]" index="57" value="0"/>
   <variable name="f[5,11]" index="58" value="0"/>
   <variable name="f[5,12]" index="59" value="0"/>
   <variable name="f[6,1]" index="60" value="0"/>
   <variable name="f[6,2]" index="61" value="0"/>
   <variable name="f[6,3]" index="62" value="0"/>
   <variable name="f[6,4]" index="63" value="0"/>
   <variable name="f[6,5]" index="64" value="0"/>
   <variable name="f[6,6]" index="65" value="1"/>
   <variable name="f[6,7]" index="66" value="0"/>
   <variable name="f[6,8]" index="67" value="0"/>
   <variable name="f[6,9]" index="68" value="0"/>
   <variable name="f[6,10]" index="69" value="1"/>
   <variable name="f[6,11]" index="70" value="0"/>
   <variable name="f[6,12]" index="71" value="0"/>
   <variable name="Cap" index="72" value="4"/>
  </variables>
  <objectiveValues>
   <objective index="0" name="OBJ" value="4"/>
  </objectiveValues>
 </CPLEXSolution>
 <CPLEXSolution version="1.2">
  <header
    problemName="IloCplex"
    solutionName="p2"
    solutionIndex="0"
    objectiveValue="4"
    solutionTypeValue="3"
    solutionTypeString="primal"
    solutionStatusValue="127"
    solutionStatusString="integer feasible solution"
    solutionMethodString="mip"
    primalFeasible="0"
    dualFeasible="0"
    writeLevel="1"/>
  <quality
    epInt="1.0000000000000001e-05"
    epRHS="9.9999999999999995e-07"
    maxIntInfeas="0"
    maxPrimalInfeas="0"
    maxX="4"
    maxSlack="1"/>
  <linearConstraints>
   <constraint index="0" slack="0"/>
   <constraint index="1" slack="0"/>
   <constraint index="2" slack="0"/>
   <constraint index="3" slack="0"/>
   <constraint index="4" slack="0"/>
   <constraint index="5" slack="0"/>
   <constraint index="6" slack="0"/>
   <constraint index="7" slack="0"/>
   <constraint index="8" slack="0"/>
   <constraint index="9" slack="0"/>
   <constraint index="10" slack="0"/>
   <constraint index="11" slack="0"/>
   <constraint index="12" slack="0"/>
   <constraint index="13" slack="0"/>
   <constraint index="14" slack="0"/>
   <constraint index="15" slack="0"/>
   <constraint index="16" slack="0"/>
   <constraint index="17" slack="0"/>
   <constraint index="18" slack="0"/>
   <constraint index="19" slack="0"/>
   <constraint index="20" slack="0"/>
   <constraint index="21" slack="0"/>
   <constraint index="22" slack="0"/>
   <constraint index="23" slack="0"/>
   <constraint index="24" slack="0"/>
   <constraint index="25" slack="0"/>
   <constraint index="26" slack="0"/>
   <constraint index="27" slack="0"/>
   <constraint index="28" slack="0"/>
   <constraint index="29" slack="0"/>
   <constraint index="30" slack="0"/>
   <constraint index="31" slack="0"/>
   <constraint index="32" slack="0"/>
   <constraint index="33" slack="0"/>
   <constraint index="34" slack="0"/>
   <constraint index="35" slack="0"/>
   <constraint index="36" slack="0"/>
   <constraint index="37" slack="0"/>
   <constraint index="38" slack="0"/>
   <constraint index="39" slack="0"/>
   <constraint index="40" slack="0"/>
   <constraint index="41" slack="0"/>
   <constraint index="42" slack="0"/>
   <constraint index="43" slack="0"/>
   <constraint index="44" slack="0"/>
   <constraint index="45" slack="0"/>
   <constraint index="46" slack="0"/>
   <constraint index="47" slack="0"/>
   <constraint index="48" slack="0"/>
   <constraint index="49" slack="0"/>
   <constraint index="50" slack="0"/>
   <constraint index="51" slack="0"/>
   <constraint index="52" slack="0"/>
   <constraint index="53" slack="0"/>
   <constraint index="54" slack="0"/>
   <constraint index="55" slack="1"/>
   <constraint index="56" slack="1"/>
   <constraint index="57" slack="1"/>
   <constraint index="58" slack="1"/>
   <constraint index="59" slack="1"/>
   <constraint index="60" slack="0"/>
   <constraint index="61" slack="1"/>
   <constraint index="62" slack="1"/>
   <constraint index="63" slack="1"/>
   <constraint index="64" slack="0"/>
   <constraint index="65" slack="1"/>
   <constraint index="66" slack="1"/>
   <constraint index="67" slack="1"/>
   <constraint index="68" slack="1"/>
   <constraint index="69" slack="1"/>
   <constraint index="70" slack="1"/>
   <constraint index="71" slack="0"/>
   <constraint index="72" slack="1"/>
   <constraint index="73" slack="1"/>
   <constraint index="74" slack="1"/>
   <constraint index="75" slack="1"/>
   <constraint index="76" slack="0"/>
   <constraint index="77" slack="1"/>
   <constraint index="78" slack="1"/>
   <constraint index="79" slack="1"/>
   <constraint index="80" slack="1"/>
   <constraint index="81" slack="1"/>
   <constraint index="82" slack="0"/>
   <constraint index="83" slack="1"/>
   <constraint index="84" slack="0"/>
   <constraint index="85" slack="0"/>
   <constraint index="86" slack="0"/>
   <constraint index="87" slack="0"/>
   <constraint index="88" slack="0"/>
   <constraint index="89" slack="0"/>
   <constraint index="90" slack="-1"/>
   <constraint index="91" slack="-1"/>
   <constraint index="92" slack="-1"/>
   <constraint index="93" slack="-1"/>
   <constraint index="94" slack="-1"/>
   <constraint index="95" slack="-1"/>
  </linearConstraints>
  <variables>
   <variable name="f[1,1]" index="0" value="1"/>
   <variable name="f[1,2]" index="1" value="0"/>
   <variable name="f[1,3]" index="2" value="0"/>
   <variable name="f[1,4]" index="3" value="0"/>
   <variable name="f[1,5]" index="4" value="1"/>
   <variable name="f[1,6]" index="5" value="0"/>
   <variable name="f[1,7]" index="6" value="0"/>
   <variable name="f[1,8]" index="7" value="0"/>
   <variable name="f[1,9]" index="8" value="0"/>
   <variable name="f[1,10]" index="9" value="0"/>
   <variable name="f[1,11]" index="10" value="0"/>
   <variable name="f[1,12]" index="11" value="0"/>
   <variable name="f[2,1]" index="12" value="0"/>
   <variable name="f[2,2]" index="13" value="0"/>
   <variable name="f[2,3]" index="14" value="0"/>
   <variable name="f[2,4]" index="15" value="0"/>
   <variable name="f[2,5]" index="16" value="1"/>
   <variable name="f[2,6]" index="17" value="0"/>
   <variable name="f[2,7]" index="18" value="0"/>
   <variable name="f[2,8]" index="19" value="1"/>
   <variable name="f[2,9]" index="20" value="0"/>
   <variable name="f[2,10]" index="21" value="0"/>
   <variable name="f[2,11]" index="22" value="0"/>
   <variable name="f[2,12]" index="23" value="0"/>
   <variable name="f[3,1]" index="24" value="1"/>
   <variable name="f[3,2]" index="25" value="1"/>
   <variable name="f[3,3]" index="26" value="0"/>
   <variable name="f[3,4]" index="27" value="0"/>
   <variable name="f[3,5]" index="28" value="0"/>
   <variable name="f[3,6]" index="29" value="0"/>
   <variable name="f[3,7]" index="30" value="0"/>
   <variable name="f[3,8]" index="31" value="0"/>
   <variable name="f[3,9]" index="32" value="0"/>
   <variable name="f[3,10]" index="33" value="0"/>
   <variable name="f[3,11]" index="34" value="0"/>
   <variable name="f[3,12]" index="35" value="0"/>
   <variable name="f[4,1]" index="36" value="0"/>
   <variable name="f[4,2]" index="37" value="0"/>
   <variable name="f[4,3]" index="38" value="1"/>
   <variable name="f[4,4]" index="39" value="1"/>
   <variable name="f[4,5]" index="40" value="0"/>
   <variable name="f[4,6]" index="41" value="0"/>
   <variable name="f[4,7]" index="42" value="0"/>
   <variable name="f[4,8]" index="43" value="0"/>
   <variable name="f[4,9]" index="44" value="0"/>
   <variable name="f[4,10]" index="45" value="0"/>
   <variable name="f[4,11]" index="46" value="0"/>
   <variable name="f[4,12]" index="47" value="0"/>
   <variable name="f[5,1]" index="48" value="0"/>
   <variable name="f[5,2]" index="49" value="0"/>
   <variable name="f[5,3]" index="50" value="1"/>
   <variable name="f[5,4]" index="51" value="0"/>
   <variable name="f[5,5]" index="52" value="0"/>
   <variable name="f[5,6]" index="53" value="1"/>
   <variable name="f[5,7]" index="54" value="0"/>
   <variable name="f[5,8]" index="55" value="0"/>
   <variable name="f[5,9]" index="56" value="0"/>
   <variable name="f[5,10]" index="57" value="0"/>
   <variable name="f[5,11]" index="58" value="0"/>
   <variable name="f[5,12]" index="59" value="0"/>
   <variable name="f[6,1]" index="60" value="0"/>
   <variable name="f[6,2]" index="61" value="0"/>
   <variable name="f[6,3]" index="62" value="0"/>
   <variable name="f[6,4]" index="63" value="0"/>
   <variable name="f[6,5]" index="64" value="0"/>
   <variable name="f[6,6]" index="65" value="1"/>
   <variable name="f[6,7]" index="66" value="0"/>
   <variable name="f[6,8]" index="67" value="0"/>
   <variable name="f[6,9]" index="68" value="0"/>
   <variable name="f[6,10]" index="69" value="1"/>
   <variable name="f[6,11]" index="70" value="0"/>
   <variable name="f[6,12]" index="71" value="0"/>
   <variable name="Cap" index="72" value="4"/>
  </variables>
  <objectiveValues>
   <objective index="0" name="OBJ" value="4"/>
  </objectiveValues>
 </CPLEXSolution>
</CPLEXSolutions>
